<number of tasks>
29

<cycle time>
36

<task times>
1 7
2 19
3 15
4 5
5 12
6 10
7 8
8 16
9 2
10 6
11 21
12 10
13 9
14 4
15 14
16 7
17 14
18 17
19 10
20 16
21 1
22 9
23 25
24 14
25 14
26 2
27 10
28 7
29 20

<precedence relations>
1,3
1,25
2,6
2,26
3,4
4,5
5,8
5,13
6,8
7,9
7,12
7,25
8,11
8,16
9,10
10,14
10,15
11,17
12,15
13,17
14,16
15,19
16,18
17,20
18,22
19,21
20,23
21,22
22,23
23,24
23,28
24,29
25,29
26,27
27,29
28,29

<setup times forward>
1,3:2
1,6:1
1,10:2
1,14:1
1,15:1
1,19:1
1,21:1
1,25:2
1,27:1
2,3:2
2,5:1
2,6:1
2,10:2
2,13:1
2,14:1
2,15:1
2,19:1
2,21:1
2,25:2
3,2:2
3,4:2
3,6:1
3,7:2
3,9:2
3,12:2
3,14:3
3,15:1
3,19:3
3,21:3
3,26:2
3,27:1
4,5:1
4,6:1
4,10:2
4,14:1
4,15:1
4,19:1
4,21:1
4,25:2
4,27:1
5,2:1
5,7:1
5,9:1
5,10:1
5,12:1
5,14:2
5,19:2
5,21:2
5,25:1
5,26:1
6,1:1
6,3:1
6,4:1
6,7:1
6,9:1
6,10:1
6,12:1
6,14:2
6,19:2
6,21:2
6,25:1
6,26:1
7,3:2
7,5:1
7,6:1
7,8:1
7,11:1
7,13:1
7,20:1
7,25:2
7,27:1
8,7:1
8,9:1
8,10:1
8,11:2
8,12:1
8,14:2
8,16:2
8,19:2
8,21:2
8,25:1
8,26:1
9,3:2
9,5:1
9,6:1
9,8:1
9,10:2
9,11:1
9,13:1
9,20:1
9,25:2
9,27:1
10,1:2
10,2:2
10,4:2
10,5:1
10,6:1
10,8:1
10,11:3
10,12:2
10,13:1
10,14:3
10,15:1
10,17:2
10,20:3
10,26:2
10,27:1
11,7:1
11,9:1
11,10:3
11,12:1
11,13:2
11,15:2
11,17:1
11,18:1
11,25:3
11,26:1
11,27:2
12,3:2
12,5:1
12,6:1
12,8:1
12,10:2
12,11:1
12,13:1
12,14:1
12,15:1
12,16:1
12,20:1
12,25:2
12,27:1
13,2:1
13,7:1
13,9:1
13,10:1
13,11:2
13,12:1
13,14:2
13,16:2
13,17:1
13,18:1
13,19:2
13,21:2
13,22:2
13,25:1
13,26:1
14,1:1
14,2:1
14,3:3
14,4:1
14,5:2
14,6:2
14,8:2
14,12:1
14,13:2
14,15:2
14,17:1
14,25:3
14,26:1
14,27:2
15,1:1
15,2:1
15,3:1
15,4:1
15,11:2
15,14:2
15,16:2
15,17:1
15,18:1
15,19:2
15,20:2
15,25:1
15,26:1
16,12:1
16,13:2
16,15:2
16,17:1
16,18:1
16,25:3
16,26:1
16,27:2
17,10:2
17,14:1
17,15:1
17,16:1
17,19:1
17,20:1
17,21:1
17,22:1
17,25:2
17,27:1
18,11:1
18,13:1
18,15:1
18,19:1
18,20:1
18,21:1
18,22:1
18,25:2
18,27:1
19,1:1
19,2:1
19,3:3
19,4:1
19,5:2
19,6:2
19,8:2
19,13:2
19,17:1
19,18:1
19,25:3
19,26:1
19,27:2
20,7:1
20,9:1
20,10:3
20,12:1
20,15:2
20,18:1
20,23:3
20,25:3
20,26:1
20,27:2
21,1:1
21,2:1
21,3:3
21,4:1
21,5:2
21,6:2
21,8:2
21,13:2
21,17:1
21,18:1
21,25:3
21,26:1
21,27:2
22,13:2
22,17:1
22,23:3
22,25:3
22,26:1
22,27:2
23,24:2
23,26:2
23,27:1
24,25:2
24,27:1
24,28:2
25,2:2
25,4:2
25,5:1
25,6:1
25,8:1
25,9:2
25,11:3
25,12:2
25,13:1
25,14:3
25,15:1
25,16:3
25,17:2
25,18:2
25,19:3
25,20:3
25,21:3
25,22:3
25,24:2
25,26:2
25,27:1
25,29:2
26,3:2
26,5:1
26,6:1
26,8:1
26,10:2
26,11:1
26,13:1
26,14:1
26,15:1
26,16:1
26,19:1
26,20:1
26,21:1
26,22:1
26,23:2
26,25:2
26,27:1
26,28:2
27,1:1
27,3:1
27,4:1
27,7:1
27,9:1
27,10:1
27,11:2
27,12:1
27,14:2
27,16:2
27,17:1
27,18:1
27,19:2
27,20:2
27,21:2
27,22:2
27,23:1
27,24:1
27,25:1
27,28:1
27,29:1
28,24:2
28,26:2
28,27:1
28,29:2

<setup times backward>
1,14:1
1,19:1
1,21:1
2,14:1
2,19:1
2,21:1
3,1:2
3,2:2
3,6:1
3,7:2
3,9:2
3,12:2
3,14:3
3,15:1
3,19:3
3,21:3
3,26:2
3,27:1
4,14:1
4,19:1
4,21:1
5,1:1
5,2:1
5,4:1
5,7:1
5,9:1
5,12:1
5,14:2
5,19:2
5,21:2
5,26:1
6,1:1
6,2:1
6,4:1
6,7:1
6,9:1
6,12:1
6,14:2
6,19:2
6,21:2
6,26:1
7,11:1
7,20:1
8,1:1
8,2:1
8,4:1
8,7:1
8,9:1
8,12:1
8,14:2
8,19:2
8,21:2
8,26:1
9,11:1
9,20:1
10,1:2
10,2:2
10,4:2
10,5:1
10,6:1
10,7:2
10,8:1
10,9:2
10,11:3
10,12:2
10,13:1
10,17:2
10,20:3
10,26:2
10,27:1
12,11:1
12,14:1
12,16:1
12,20:1
13,1:1
13,2:1
13,4:1
13,7:1
13,9:1
13,11:2
13,12:1
13,14:2
13,16:2
13,18:1
13,19:2
13,21:2
13,22:2
13,26:1
15,1:1
15,2:1
15,4:1
15,7:1
15,9:1
15,11:2
15,12:1
15,14:2
15,16:2
15,17:1
15,18:1
15,20:2
15,26:1
17,11:1
17,14:1
17,16:1
17,19:1
17,21:1
17,22:1
18,11:1
18,14:1
18,16:1
18,19:1
18,20:1
18,21:1
23,1:2
23,2:2
23,4:2
23,5:1
23,6:1
23,7:2
23,8:1
23,9:2
23,11:3
23,12:2
23,13:1
23,14:3
23,15:1
23,16:3
23,17:2
23,18:2
23,19:3
23,20:3
23,21:3
23,22:3
23,26:2
23,27:1
24,11:1
24,14:1
24,16:1
24,19:1
24,20:1
24,21:1
24,22:1
25,1:2
25,2:2
25,4:2
25,5:1
25,6:1
25,7:2
25,8:1
25,9:2
25,11:3
25,12:2
25,13:1
25,14:3
25,15:1
25,16:3
25,17:2
25,18:2
25,19:3
25,20:3
25,21:3
25,22:3
25,24:2
25,26:2
25,27:1
26,11:1
26,14:1
26,16:1
26,19:1
26,20:1
26,21:1
26,22:1
27,1:1
27,2:1
27,4:1
27,7:1
27,9:1
27,11:2
27,12:1
27,14:2
27,16:2
27,17:1
27,18:1
27,19:2
27,20:2
27,21:2
27,22:2
27,24:1
27,26:1
28,1:2
28,2:2
28,4:2
28,5:1
28,6:1
28,7:2
28,8:1
28,9:2
28,11:3
28,12:2
28,13:1
28,14:3
28,15:1
28,16:3
28,17:2
28,18:2
28,19:3
28,20:3
28,21:3
28,22:3
28,24:2
28,26:2
28,27:1
29,11:1
29,14:1
29,16:1
29,19:1
29,20:1
29,21:1
29,22:1

<end>

<optimal SALBP-1 value>
10


<rand seed>
467321153

<Lower Bounds>
Lm1=9
Lms1=9
Lm2=4
Lm3=7
Lm4=9
Best=9

<Optimal Stations (Iterations: 10)>
11
